%SETS
JOBS     = 1..5;
MACHINES = 1..50;
SPEED    = 5;

time        = array3d(JOBS,MACHINES,1..SPEED,[21, 7, 5, 4, 3, 14, 5, 3, 3, 2, 115, 39, 28, 23, 20, 2, 1, 1, 1, 1, 6, 2, 1, 1, 1, 4, 1, 1, 1, 1, 27, 9, 6, 5, 4, 7, 2, 1, 1, 1, 16, 5, 3, 3, 2, 7, 2, 1, 1, 1, 4, 1, 1, 1, 1, 3, 1, 1, 1, 1, 27, 9, 6, 5, 4, 3, 1, 1, 1, 1, 5, 1, 1, 1, 1, 11, 4, 2, 2, 2, 44, 15, 10, 9, 8, 2, 1, 1, 1, 1, 47, 16, 11, 9, 8, 2, 1, 1, 1, 1, 97, 33, 23, 19, 17, 16, 5, 4, 3, 2, 97, 33, 23, 19, 17, 24, 8, 5, 4, 4, 34, 12, 8, 7, 6, 1, 1, 1, 1, 1, 8, 2, 2, 1, 1, 3, 1, 1, 1, 1, 9, 3, 2, 1, 1, 3, 1, 1, 1, 1, 9, 3, 2, 2, 1, 13, 4, 3, 2, 2, 1, 1, 1, 1, 1, 30, 10, 7, 6, 5, 21, 7, 5, 4, 3, 7, 2, 1, 1, 1, 19, 6, 4, 3, 3, 2, 1, 1, 1, 1, 22, 7, 5, 4, 3, 68, 23, 16, 13, 12, 9, 3, 2, 2, 1, 28, 9, 6, 5, 5, 3, 1, 1, 1, 1, 32, 11, 7, 6, 5, 8, 3, 2, 1, 1, 5, 1, 1, 1, 1, 22, 7, 5, 4, 4, 1, 1, 1, 1, 1, 45, 15, 11, 9, 8, 1, 1, 1, 1, 1, 29, 10, 7, 5, 5, 8, 2, 1, 1, 1, 34, 11, 8, 6, 6, 84, 29, 20, 17, 15, 7, 2, 1, 1, 1, 22, 7, 5, 4, 3, 23, 8, 5, 4, 4, 21, 7, 5, 4, 3, 6, 2, 1, 1, 1, 78, 27, 19, 16, 14, 15, 5, 3, 3, 2, 48, 16, 11, 9, 8, 31, 10, 7, 6, 5, 9, 3, 2, 1, 1, 43, 15, 10, 8, 7, 13, 4, 3, 2, 2, 55, 19, 13, 11, 9, 22, 7, 5, 4, 4, 55, 19, 13, 11, 9, 30, 10, 7, 6, 5, 33, 11, 8, 6, 6, 18, 6, 4, 3, 3, 80, 27, 19, 16, 14, 26, 9, 6, 5, 4, 14, 4, 3, 2, 2, 24, 8, 5, 4, 4, 1, 1, 1, 1, 1, 9, 3, 2, 1, 1, 27, 9, 6, 5, 5, 8, 3, 2, 1, 1, 24, 8, 6, 5, 4, 14, 5, 3, 2, 2, 3, 1, 1, 1, 1, 9, 3, 2, 1, 1, 21, 7, 5, 4, 3, 23, 7, 5, 4, 4, 22, 7, 5, 4, 3, 27, 9, 6, 5, 4, 27, 9, 6, 5, 4, 14, 5, 3, 2, 2, 58, 20, 14, 11, 10, 11, 4, 2, 2, 2, 14, 5, 3, 3, 2, 57, 19, 14, 11, 10, 42, 14, 10, 8, 7, 31, 10, 7, 6, 5, 2, 1, 1, 1, 1, 65, 22, 15, 13, 11, 32, 11, 7, 6, 5, 175, 60, 42, 35, 31, 4, 1, 1, 1, 1, 52, 18, 12, 10, 9, 4, 1, 1, 1, 1, 24, 8, 6, 5, 4, 3, 1, 1, 1, 1, 48, 16, 11, 9, 8, 42, 14, 10, 8, 7, 21, 7, 5, 4, 3, 13, 4, 3, 2, 2, 1, 1, 1, 1, 1, 30, 10, 7, 6, 5, 15, 5, 3, 3, 2, 33, 11, 8, 6, 5, 52, 17, 12, 10, 9, 96, 33, 23, 19, 17, 50, 17, 12, 10, 9, 1, 1, 1, 1, 1, 11, 3, 2, 2, 2, 33, 11, 8, 6, 6, 4, 1, 1, 1, 1, 19, 6, 4, 3, 3, 1, 1, 1, 1, 1, 5, 1, 1, 1, 1, 1, 1, 1, 1, 1, 40, 14, 10, 8, 7, 6, 2, 1, 1, 1, 10, 3, 2, 2, 1, 68, 23, 16, 13, 12, 31, 10, 7, 6, 5, 1, 1, 1, 1, 1, 4, 1, 1, 1, 1, 25, 8, 6, 5, 4, 22, 7, 5, 4, 4, 7, 2, 1, 1, 1, 70, 24, 17, 14, 12, 24, 8, 6, 5, 4, 19, 6, 4, 4, 3, 23, 7, 5, 4, 4, 33, 11, 8, 6, 6, 9, 3, 2, 1, 1, 13, 4, 3, 2, 2, 6, 2, 1, 1, 1, 5, 1, 1, 1, 1, 74, 25, 18, 15, 13, 34, 12, 8, 7, 6, 17, 6, 4, 3, 3, 6, 2, 1, 1, 1, 7, 2, 1, 1, 1, 1, 1, 1, 1, 1, 14, 5, 3, 2, 2, 9, 3, 2, 1, 1, 30, 10, 7, 6, 5, 12, 4, 3, 2, 2, 5, 1, 1, 1, 1, 1, 1, 1, 1, 1, 1, 1, 1, 1, 1, 29, 10, 7, 5, 5, 15, 5, 3, 3, 2, 19, 6, 4, 4, 3, 58, 20, 14, 11, 10, 120, 41, 29, 24, 21, 6, 2, 1, 1, 1, 28, 9, 6, 5, 5, 7, 2, 1, 1, 1, 1, 1, 1, 1, 1, 36, 12, 9, 7, 6, 9, 3, 2, 2, 1, 12, 4, 3, 2, 2, 22, 7, 5, 4, 4, 46, 15, 11, 9, 8, 25, 8, 6, 5, 4, 53, 18, 13, 10, 9, 8, 2, 2, 1, 1, 41, 14, 10, 8, 7, 5, 1, 1, 1, 1, 79, 27, 19, 16, 14, 30, 10, 7, 6, 5, 6, 2, 1, 1, 1, 76, 26, 18, 15, 13, 33, 11, 8, 6, 6, 7, 2, 1, 1, 1, 6, 2, 1, 1, 1, 18, 6, 4, 3, 3, 1, 1, 1, 1, 1, 6, 2, 1, 1, 1, 14, 4, 3, 2, 2, 12, 4, 2, 2, 2, 16, 5, 3, 3, 2, 8, 2, 2, 1, 1, 22, 7, 5, 4, 4, 51, 17, 12, 10, 9, 3, 1, 1, 1, 1, 18, 6, 4, 3, 3, 3, 1, 1, 1, 1, 32, 11, 7, 6, 5, 13, 4, 3, 2, 2, 21, 7, 5, 4, 3, 5, 1, 1, 1, 1, 4, 1, 1, 1, 1, 17, 5, 4, 3, 3, 11, 3, 2, 2, 2, 72, 25, 17, 14, 13, 37, 12, 9, 7, 6, 35, 12, 8, 7, 6, 60, 20, 14, 12, 10, 2, 1, 1, 1, 1, 20, 7, 5, 4, 3, 22, 7, 5, 4, 4, 84, 29, 20, 17, 15, 8, 3, 2, 1, 1, 7, 2, 1, 1, 1, 2, 1, 1, 1, 1, 1, 1, 1, 1, 1, 68, 23, 16, 13, 12, 28, 9, 7, 5, 5, 39, 13, 9, 8, 7, 8, 2, 2, 1, 1, 22, 7, 5, 4, 4, 1, 1, 1, 1, 1, 17, 5, 4, 3, 3, 98, 33, 24, 19, 17, 54, 18, 13, 11, 9, 10, 3, 2, 2, 1, 84, 29, 20, 17, 15, 6, 2, 1, 1, 1, 77, 26, 18, 15, 13, 73, 25, 17, 14, 13, 41, 14, 10, 8, 7, 25, 8, 6, 5, 4, 53, 18, 13, 10, 9, 8, 3, 2, 1, 1, 48, 16, 11, 9, 8, 24, 8, 6, 5, 4, 1, 1, 1, 1, 1, 11, 3, 2, 2, 1, 4, 1, 1, 1, 1, 103, 35, 25, 21, 18, 16, 5, 4, 3, 3, 17, 6, 4, 3, 3, 26, 9, 6, 5, 4, 11, 4, 2, 2, 2, 3, 1, 1, 1, 1, 44, 15, 10, 9, 8, 5, 1, 1, 1, 1, 18, 6, 4, 3, 3, 6, 2, 1, 1, 1, 2, 1, 1, 1, 1, 51, 17, 12, 10, 9, 93, 32, 22, 18, 16, 83, 28, 20, 17, 15]);
energy      = array3d(JOBS,MACHINES,1..SPEED,[81, 93, 95, 96, 97, 86, 95, 97, 97, 98, 31, 67, 75, 79, 81, 98, 99, 99, 99, 99, 94, 98, 99, 99, 99, 96, 99, 99, 99, 99, 76, 91, 94, 95, 96, 93, 98, 99, 99, 99, 85, 95, 97, 97, 98, 93, 98, 99, 99, 99, 96, 99, 99, 99, 99, 97, 99, 99, 99, 99, 76, 91, 94, 95, 96, 97, 99, 99, 99, 99, 95, 99, 99, 99, 99, 89, 96, 98, 98, 98, 64, 86, 90, 91, 92, 98, 99, 99, 99, 99, 62, 85, 89, 91, 92, 98, 99, 99, 99, 99, 37, 71, 79, 82, 84, 85, 95, 96, 97, 98, 37, 71, 79, 82, 84, 78, 92, 95, 96, 96, 71, 88, 92, 93, 94, 99, 99, 99, 99, 99, 92, 98, 98, 99, 99, 97, 99, 99, 99, 99, 91, 97, 98, 99, 99, 97, 99, 99, 99, 99, 91, 97, 98, 98, 99, 87, 96, 97, 98, 98, 99, 99, 99, 99, 99, 74, 90, 93, 94, 95, 81, 93, 95, 96, 97, 93, 98, 99, 99, 99, 82, 94, 96, 97, 97, 98, 99, 99, 99, 99, 80, 93, 95, 96, 97, 50, 79, 85, 87, 88, 91, 97, 98, 98, 99, 75, 91, 94, 95, 95, 97, 99, 99, 99, 99, 72, 89, 93, 94, 95, 92, 97, 98, 99, 99, 95, 99, 99, 99, 99, 80, 93, 95, 96, 96, 99, 99, 99, 99, 99, 63, 86, 89, 91, 92, 99, 99, 99, 99, 99, 74, 90, 93, 95, 95, 92, 98, 99, 99, 99, 71, 89, 92, 94, 94, 43, 74, 81, 84, 86, 93, 98, 99, 99, 99, 80, 93, 95, 96, 97, 79, 92, 95, 96, 96, 81, 93, 95, 96, 97, 94, 98, 99, 99, 99, 45, 76, 82, 85, 86, 86, 95, 97, 97, 98, 61, 85, 89, 91, 92, 73, 90, 93, 94, 95, 91, 97, 98, 99, 99, 65, 86, 90, 92, 93, 87, 96, 97, 98, 98, 57, 82, 87, 89, 91, 80, 93, 95, 96, 96, 57, 82, 87, 89, 91, 74, 90, 93, 94, 95, 71, 89, 92, 94, 94, 83, 94, 96, 97, 97, 44, 76, 82, 85, 86, 77, 91, 94, 95, 96, 86, 96, 97, 98, 98, 78, 92, 95, 96, 96, 99, 99, 99, 99, 99, 91, 97, 98, 99, 99, 76, 91, 94, 95, 95, 92, 97, 98, 99, 99, 78, 92, 94, 95, 96, 86, 95, 97, 98, 98, 97, 99, 99, 99, 99, 91, 97, 98, 99, 99, 81, 93, 95, 96, 97, 79, 93, 95, 96, 96, 80, 93, 95, 96, 97, 76, 91, 94, 95, 96, 76, 91, 94, 95, 96, 86, 95, 97, 98, 98, 55, 81, 86, 89, 90, 89, 96, 98, 98, 98, 86, 95, 97, 97, 98, 56, 82, 86, 89, 90, 65, 86, 90, 92, 93, 73, 90, 93, 94, 95, 98, 99, 99, 99, 99, 52, 80, 86, 87, 89, 72, 89, 93, 94, 95, 17, 54, 65, 70, 73, 96, 99, 99, 99, 99, 59, 83, 88, 90, 91, 96, 99, 99, 99, 99, 78, 92, 94, 95, 96, 97, 99, 99, 99, 99, 61, 85, 89, 91, 92, 65, 86, 90, 92, 93, 81, 93, 95, 96, 97, 87, 96, 97, 98, 98, 99, 99, 99, 99, 99, 74, 90, 93, 94, 95, 86, 95, 97, 97, 98, 71, 89, 92, 94, 95, 59, 84, 88, 90, 91, 38, 71, 79, 82, 84, 60, 84, 88, 90, 91, 99, 99, 99, 99, 99, 89, 97, 98, 98, 98, 71, 89, 92, 94, 94, 96, 99, 99, 99, 99, 82, 94, 96, 97, 97, 99, 99, 99, 99, 99, 95, 99, 99, 99, 99, 99, 99, 99, 99, 99, 67, 86, 90, 92, 93, 94, 98, 99, 99, 99, 90, 97, 98, 98, 99, 50, 79, 85, 87, 88, 73, 90, 93, 94, 95, 99, 99, 99, 99, 99, 96, 99, 99, 99, 99, 77, 92, 94, 95, 96, 80, 93, 95, 96, 96, 93, 98, 99, 99, 99, 49, 78, 84, 86, 88, 78, 92, 94, 95, 96, 82, 94, 96, 96, 97, 79, 93, 95, 96, 96, 71, 89, 92, 94, 94, 91, 97, 98, 99, 99, 87, 96, 97, 98, 98, 94, 98, 99, 99, 99, 95, 99, 99, 99, 99, 47, 77, 83, 86, 87, 71, 88, 92, 93, 94, 84, 94, 96, 97, 97, 94, 98, 99, 99, 99, 93, 98, 99, 99, 99, 99, 99, 99, 99, 99, 86, 95, 97, 98, 98, 91, 97, 98, 99, 99, 74, 90, 93, 94, 95, 88, 96, 97, 98, 98, 95, 99, 99, 99, 99, 99, 99, 99, 99, 99, 99, 99, 99, 99, 99, 74, 90, 93, 95, 95, 86, 95, 97, 97, 98, 82, 94, 96, 96, 97, 55, 81, 86, 89, 90, 30, 66, 74, 78, 81, 94, 98, 99, 99, 99, 75, 91, 94, 95, 95, 93, 98, 99, 99, 99, 99, 99, 99, 99, 99, 69, 88, 91, 93, 94, 91, 97, 98, 98, 99, 88, 96, 97, 98, 98, 80, 93, 95, 96, 96, 63, 86, 89, 91, 92, 77, 92, 94, 95, 96, 58, 83, 87, 90, 91, 92, 98, 98, 99, 99, 66, 86, 90, 92, 93, 95, 99, 99, 99, 99, 45, 76, 82, 85, 86, 74, 90, 93, 94, 95, 94, 98, 99, 99, 99, 46, 77, 83, 86, 87, 71, 89, 92, 94, 94, 93, 98, 99, 99, 99, 94, 98, 99, 99, 99, 83, 94, 96, 97, 97, 99, 99, 99, 99, 99, 94, 98, 99, 99, 99, 86, 96, 97, 98, 98, 88, 96, 98, 98, 98, 85, 95, 97, 97, 98, 92, 98, 98, 99, 99, 80, 93, 95, 96, 96, 60, 84, 88, 90, 91, 97, 99, 99, 99, 99, 83, 94, 96, 97, 97, 97, 99, 99, 99, 99, 72, 89, 93, 94, 95, 87, 96, 97, 98, 98, 81, 93, 95, 96, 97, 95, 99, 99, 99, 99, 96, 99, 99, 99, 99, 84, 95, 96, 97, 97, 89, 97, 98, 98, 98, 48, 77, 84, 86, 87, 69, 88, 91, 93, 94, 70, 88, 92, 93, 94, 54, 81, 86, 88, 90, 98, 99, 99, 99, 99, 81, 93, 95, 96, 97, 80, 93, 95, 96, 96, 43, 74, 81, 84, 86, 92, 97, 98, 99, 99, 93, 98, 99, 99, 99, 98, 99, 99, 99, 99, 99, 99, 99, 99, 99, 50, 79, 85, 87, 88, 75, 91, 93, 95, 95, 67, 87, 91, 92, 93, 92, 98, 98, 99, 99, 80, 93, 95, 96, 96, 99, 99, 99, 99, 99, 84, 95, 96, 97, 97, 37, 71, 78, 82, 84, 58, 83, 87, 89, 91, 90, 97, 98, 98, 99, 43, 74, 81, 84, 86, 94, 98, 99, 99, 99, 46, 77, 83, 86, 87, 48, 77, 84, 86, 87, 66, 86, 90, 92, 93, 77, 92, 94, 95, 96, 58, 83, 87, 90, 91, 92, 97, 98, 99, 99, 61, 85, 89, 91, 92, 78, 92, 94, 95, 96, 99, 99, 99, 99, 99, 89, 97, 98, 98, 99, 96, 99, 99, 99, 99, 35, 70, 77, 81, 83, 85, 95, 96, 97, 97, 84, 94, 96, 97, 97, 77, 91, 94, 95, 96, 89, 96, 98, 98, 98, 97, 99, 99, 99, 99, 64, 86, 90, 91, 92, 95, 99, 99, 99, 99, 83, 94, 96, 97, 97, 94, 98, 99, 99, 99, 98, 99, 99, 99, 99, 60, 84, 88, 90, 91, 39, 72, 80, 83, 85, 43, 75, 81, 84, 86]);
precedence  = array2d(JOBS,MACHINES,[38, 39, 31, 42, 26, 34, 33, 18, 29, 21, 46, 13, 48, 23, 5, 11, 8, 4, 47, 49, 14, 3, 1, 7, 37, 30, 9, 19, 28, 17, 6, 2, 15, 44, 45, 35, 40, 24, 25, 27, 36, 12, 32, 43, 10, 20, 0, 16, 41, 22, 33, 34, 39, 28, 11, 32, 23, 5, 38, 12, 37, 25, 43, 13, 27, 29, 40, 10, 4, 24, 22, 19, 17, 21, 31, 15, 36, 49, 7, 46, 18, 47, 42, 44, 8, 9, 48, 0, 1, 30, 14, 41, 26, 6, 3, 2, 45, 20, 16, 35, 19, 41, 35, 44, 29, 21, 2, 48, 23, 34, 43, 6, 24, 10, 3, 9, 39, 8, 1, 4, 42, 30, 18, 36, 0, 32, 47, 7, 38, 45, 5, 14, 11, 15, 26, 33, 16, 28, 31, 13, 12, 22, 40, 25, 17, 27, 46, 37, 20, 49, 40, 19, 9, 36, 18, 30, 21, 43, 4, 33, 37, 12, 48, 11, 20, 38, 42, 26, 16, 46, 32, 25, 13, 39, 29, 10, 47, 17, 49, 41, 2, 14, 31, 24, 27, 6, 35, 8, 44, 0, 7, 28, 34, 15, 22, 23, 1, 3, 45, 5, 3, 36, 41, 22, 27, 38, 16, 47, 40, 29, 39, 20, 5, 21, 2, 32, 1, 26, 44, 23, 31, 42, 0, 43, 33, 14, 49, 18, 7, 9, 12, 10, 46, 25, 13, 34, 45, 8, 35, 11, 6, 24, 19, 28, 30, 37, 15, 4, 48, 17]);
releaseDate = array2d(JOBS,MACHINES,[273, 278, 211, 299, 183, 255, 247, 171, 204, 174, 324, 127, 336, 176, 89, 119, 100, 88, 325, 356, 128, 84, 55, 94, 260, 210, 113, 172, 201, 170, 91, 78, 168, 310, 317, 256, 281, 177, 178, 185, 257, 121, 246, 301, 117, 173, 50, 169, 285, 175, 419, 436, 510, 355, 132, 414, 286, 75, 508, 133, 504, 299, 538, 162, 328, 398, 519, 125, 58, 291, 278, 233, 196, 265, 411, 181, 503, 560, 105, 548, 226, 550, 537, 545, 115, 120, 555, 10, 29, 401, 164, 535, 319, 91, 43, 36, 547, 237, 188, 437, 190, 320, 303, 348, 271, 193, 51, 359, 207, 302, 341, 90, 210, 135, 61, 121, 318, 119, 41, 88, 334, 272, 189, 304, 30, 292, 357, 94, 307, 355, 89, 169, 153, 175, 241, 293, 176, 264, 273, 167, 163, 206, 319, 221, 180, 260, 356, 306, 192, 364, 337, 177, 106, 285, 175, 236, 187, 350, 73, 258, 287, 162, 380, 161, 185, 317, 348, 229, 168, 358, 244, 210, 163, 327, 235, 109, 372, 174, 388, 340, 71, 165, 239, 209, 233, 82, 283, 102, 353, 60, 85, 234, 279, 167, 197, 205, 65, 72, 357, 78, 17, 303, 357, 207, 229, 321, 123, 446, 323, 256, 322, 186, 39, 187, 4, 287, 2, 223, 404, 217, 262, 368, 0, 382, 297, 94, 491, 156, 42, 54, 90, 69, 439, 222, 92, 298, 405, 49, 299, 80, 40, 221, 176, 255, 258, 320, 122, 20, 454, 135]);
dueDate     = array2d(JOBS,MACHINES,[278, 281, 246, 301, 185, 256, 255, 172, 210, 175, 325, 128, 356, 177, 91, 121, 113, 89, 336, 357, 168, 88, 78, 100, 273, 211, 117, 173, 204, 171, 94, 84, 169, 317, 324, 257, 285, 178, 183, 201, 260, 127, 247, 310, 119, 174, 55, 170, 299, 176, 436, 437, 519, 398, 133, 419, 291, 91, 510, 162, 508, 319, 545, 164, 355, 401, 535, 132, 75, 299, 286, 237, 226, 278, 414, 188, 504, 562, 115, 550, 233, 555, 538, 547, 120, 125, 560, 29, 36, 411, 181, 537, 328, 105, 58, 43, 548, 265, 196, 503, 192, 334, 304, 355, 272, 206, 61, 364, 210, 303, 348, 94, 221, 153, 88, 135, 319, 121, 51, 89, 341, 273, 190, 306, 41, 293, 359, 119, 318, 356, 90, 175, 163, 176, 260, 302, 180, 271, 292, 169, 167, 207, 320, 241, 189, 264, 357, 307, 193, 367, 340, 185, 109, 287, 177, 239, 197, 353, 78, 279, 317, 163, 388, 162, 187, 327, 350, 233, 174, 372, 258, 229, 165, 337, 236, 161, 380, 175, 430, 348, 72, 167, 244, 210, 234, 85, 285, 106, 357, 65, 102, 235, 283, 168, 205, 209, 71, 73, 358, 82, 20, 320, 368, 217, 255, 322, 135, 454, 357, 258, 323, 187, 40, 207, 17, 297, 4, 229, 405, 221, 287, 382, 2, 404, 298, 122, 530, 176, 49, 69, 92, 80, 446, 223, 94, 299, 439, 54, 303, 90, 42, 222, 186, 256, 262, 321, 123, 39, 491, 156]);